\ This file was automatically generated by Zimpl
\ set V:={1 .. 6};
\ set E:={<1,2>,<2,3>,<3,4>,<3,5>,<2,4>,<4,5>,<5,6>, <2,1>, <6,5>};
\ var x[E];
\ minimize fcelu: sum<v,i> in E do x[v,i];
\ subto r1: sum<1,i> in E do x[1,i]==1;
\ subto r11: sum<1,i> in E do x[i,1]==0;
\ subto r2: sum<i,6> in E do x[i,6]==1;
\ subto r22: sum<i,6> in E do x[6,i]==0;
\ subto r3: forall <v> in V\{1,6} do sum <v,i> in E do x[v,i]==sum<i,v> in E do x[i,v];
\Problem name: grafy2.zpl
Minimize
 fcelu:  + x#1#2 + x#2#3 + x#2#4 + x#2#1 + x#3#4 + x#3#5
  + x#4#5 + x#5#6 + x#6#5
Subject to
 r1_1:
  + x#1#2 = 1
 r11_1:
  + x#2#1 = 0
 r2_1:
  + x#5#6 = 1
 r22_1:
  + x#6#5 = 0
 r3_1:
  - x#1#2 + x#2#1 + x#2#4 + x#2#3 = 0
 r3_2:
  - x#2#3 + x#3#5 + x#3#4 = 0
 r3_3:
  - x#3#4 - x#2#4 + x#4#5 = 0
 r3_4:
  - x#6#5 - x#4#5 - x#3#5 + x#5#6 = 0
Bounds
 0 <= x#1#2 <= +inf
 0 <= x#2#3 <= +inf
 0 <= x#2#4 <= +inf
 0 <= x#2#1 <= +inf
 0 <= x#3#4 <= +inf
 0 <= x#3#5 <= +inf
 0 <= x#4#5 <= +inf
 0 <= x#5#6 <= +inf
 0 <= x#6#5 <= +inf
End
